\ Model p-center
\ LP format - for model browsing. Use MPS format to capture full model detail.
Minimize
  0.5 L + 0.5 eta
Subject To
 epigraph[0]: 3742.760857042642 x[0,1] + 2761.747963383043 x[0,2]
   + 740.8631702595804 x[0,3] + 194.5846242203054 x[0,4]
   + 60.07641797748861 x[0,5] - L <= 0
 epigraph[1]: 2442.599743056103 x[1,0] + 1108.847173750342 x[1,2]
   + 1993.788701705505 x[1,3] + 2382.846339074275 x[1,4]
   + 2420.512069949602 x[1,5] - L <= 0
 epigraph[2]: 2193.08214280636 x[2,0] + 1349.218606991895 x[2,1]
   + 1608.200615932539 x[2,3] + 2069.549314159764 x[2,4]
   + 2152.075687711896 x[2,5] - L <= 0
 epigraph[3]: 695.9861588834945 x[3,0] + 2869.997375259897 x[3,1]
   + 1902.531977301684 x[3,2] + 570.7399146568769 x[3,4]
   + 650.9948667723289 x[3,5] - L <= 0
 epigraph[4]: 115.9198054836901 x[4,0] + 2175.128569248905 x[4,1]
   + 1552.580212736908 x[4,2] + 361.9301580894578 x[4,3]
   + 80.34969511395015 x[4,5] - L <= 0
 epigraph[5]: 43.03845475839174 x[5,0] + 2657.04961653295 x[5,1]
   + 1941.508628234195 x[5,2] + 496.4409601066029 x[5,3]
   + 96.62460897526673 x[5,4] - L <= 0
 p: y[0] + y[1] + y[2] + y[3] + y[4] + y[5] = 2
 x<y[0,0]: x[0,0] - y[0] <= 0
 x<y[0,1]: x[0,1] - y[1] <= 0
 x<y[0,2]: x[0,2] - y[2] <= 0
 x<y[0,3]: x[0,3] - y[3] <= 0
 x<y[0,4]: x[0,4] - y[4] <= 0
 x<y[0,5]: x[0,5] - y[5] <= 0
 x<y[1,0]: x[1,0] - y[0] <= 0
 x<y[1,1]: x[1,1] - y[1] <= 0
 x<y[1,2]: x[1,2] - y[2] <= 0
 x<y[1,3]: x[1,3] - y[3] <= 0
 x<y[1,4]: x[1,4] - y[4] <= 0
 x<y[1,5]: x[1,5] - y[5] <= 0
 x<y[2,0]: x[2,0] - y[0] <= 0
 x<y[2,1]: x[2,1] - y[1] <= 0
 x<y[2,2]: x[2,2] - y[2] <= 0
 x<y[2,3]: x[2,3] - y[3] <= 0
 x<y[2,4]: x[2,4] - y[4] <= 0
 x<y[2,5]: x[2,5] - y[5] <= 0
 x<y[3,0]: x[3,0] - y[0] <= 0
 x<y[3,1]: x[3,1] - y[1] <= 0
 x<y[3,2]: x[3,2] - y[2] <= 0
 x<y[3,3]: x[3,3] - y[3] <= 0
 x<y[3,4]: x[3,4] - y[4] <= 0
 x<y[3,5]: x[3,5] - y[5] <= 0
 x<y[4,0]: x[4,0] - y[0] <= 0
 x<y[4,1]: x[4,1] - y[1] <= 0
 x<y[4,2]: x[4,2] - y[2] <= 0
 x<y[4,3]: x[4,3] - y[3] <= 0
 x<y[4,4]: x[4,4] - y[4] <= 0
 x<y[4,5]: x[4,5] - y[5] <= 0
 x<y[5,0]: x[5,0] - y[0] <= 0
 x<y[5,1]: x[5,1] - y[1] <= 0
 x<y[5,2]: x[5,2] - y[2] <= 0
 x<y[5,3]: x[5,3] - y[3] <= 0
 x<y[5,4]: x[5,4] - y[4] <= 0
 x<y[5,5]: x[5,5] - y[5] <= 0
 sumx[0]: x[0,0] + x[0,1] + x[0,2] + x[0,3] + x[0,4] + x[0,5] = 1
 sumx[1]: x[1,0] + x[1,1] + x[1,2] + x[1,3] + x[1,4] + x[1,5] = 1
 sumx[2]: x[2,0] + x[2,1] + x[2,2] + x[2,3] + x[2,4] + x[2,5] = 1
 sumx[3]: x[3,0] + x[3,1] + x[3,2] + x[3,3] + x[3,4] + x[3,5] = 1
 sumx[4]: x[4,0] + x[4,1] + x[4,2] + x[4,3] + x[4,4] + x[4,5] = 1
 sumx[5]: x[5,0] + x[5,1] + x[5,2] + x[5,3] + x[5,4] + x[5,5] = 1
 eta>k[0]: - L3[0] + eta >= 0
 eta>k[1]: - L3[1] + eta >= 0
 eta>k[2]: - L3[2] + eta >= 0
 eta>k[3]: - L3[3] + eta >= 0
 eta>k[4]: - L3[4] + eta >= 0
 sumcdv<L3k[0,0]: 5818.766127296201 v[0,0,1] + 2176.335377703646 v[0,0,2]
   + 1017.23450206356 v[0,0,3] + 174.4720856092714 v[0,0,4]
   + 70.21564358647451 v[0,0,5] - L3[0] <= 0
 sumcdv<L3k[0,1]: 998.2425075882105 v[0,1,0] + 992.6451908282421 v[0,1,2]
   + 1553.419819432117 v[0,1,3] + 1138.483076252735 v[0,1,4]
   + 1867.375598008381 v[0,1,5] - L3[0] <= 0
 sumcdv<L3k[0,2]: 2934.843194218866 v[0,2,0] + 2266.710811931407 v[0,2,1]
   + 2217.088745319207 v[0,2,3] + 1915.895773846729 v[0,2,4]
   + 3969.472554615394 v[0,2,5] - L3[0] <= 0
 sumcdv<L3k[0,3]: 479.380174290495 v[0,3,0] + 1479.635240475661 v[0,3,1]
   + 1693.490304828583 v[0,3,2] + 382.5771838208216 v[0,3,4]
   + 404.4101168873607 v[0,3,5] - L3[0] <= 0
 sumcdv<L3k[0,4]: 198.7863749490431 v[0,4,0] + 2219.50721454509 v[0,4,1]
   + 1690.529890768881 v[0,4,2] + 366.1424313687504 v[0,4,3]
   + 105.9646498986111 v[0,4,5] - L3[0] <= 0
 sumcdv<L3k[0,5]: 53.36099511339716 v[0,5,0] + 3292.179610315021 v[0,5,1]
   + 4147.085988915336 v[0,5,2] + 681.4496328250173 v[0,5,3]
   + 165.3224356559441 v[0,5,4] - L3[0] <= 0
 sumcdv<L3k[1,0]: 2669.783870133615 v[1,0,1] + 1100.502563257218 v[1,0,2]
   + 274.1674744024593 v[1,0,3] + 143.9453669465379 v[1,0,4]
   + 38.36591240535074 v[1,0,5] - L3[1] <= 0
 sumcdv<L3k[1,1]: 1448.691497516576 v[1,1,0] + 628.2057806015397 v[1,1,2]
   + 1893.267406113273 v[1,1,3] + 2179.823645978125 v[1,1,4]
   + 1504.992420932565 v[1,1,5] - L3[1] <= 0
 sumcdv<L3k[1,2]: 982.3937224886419 v[1,2,0] + 576.75223583183 v[1,2,1]
   + 1450.69328727726 v[1,2,3] + 979.2690437005933 v[1,2,4]
   + 1880.795405748582 v[1,2,5] - L3[1] <= 0
 sumcdv<L3k[1,3]: 402.3366978044856 v[1,3,0] + 1551.220288183637 v[1,3,1]
   + 1035.684041814194 v[1,3,2] + 475.3422096744474 v[1,3,4]
   + 440.3379700916711 v[1,3,5] - L3[1] <= 0
 sumcdv<L3k[1,4]: 189.0390583381743 v[1,4,0] + 2657.68930669256 v[1,4,1]
   + 2365.997719826517 v[1,4,2] + 418.419675042443 v[1,4,3]
   + 86.52032314470054 v[1,4,5] - L3[1] <= 0
 sumcdv<L3k[1,5]: 28.65776247813161 v[1,5,0] + 3223.966245690931 v[1,5,1]
   + 2157.24970080051 v[1,5,2] + 380.6938792778678 v[1,5,3]
   + 73.19588673732193 v[1,5,4] - L3[1] <= 0
 sumcdv<L3k[2,0]: 3622.972271016515 v[2,0,1] + 2779.454947082593 v[2,0,2]
   + 312.0748520775919 v[2,0,3] + 177.9256524682391 v[2,0,4]
   + 37.26122277803436 v[2,0,5] - L3[2] <= 0
 sumcdv<L3k[2,1]: 3087.54370814541 v[2,1,0] + 1879.680794998279 v[2,1,2]
   + 2785.53517580105 v[2,1,3] + 3618.893565616429 v[2,1,4]
   + 4179.956524313979 v[2,1,5] - L3[2] <= 0
 sumcdv<L3k[2,2]: 3434.255962441915 v[2,2,0] + 1633.902268951885 v[2,2,1]
   + 1657.961677210033 v[2,2,3] + 3613.566698362304 v[2,2,4]
   + 2416.692129429968 v[2,2,5] - L3[2] <= 0
 sumcdv<L3k[2,3]: 409.7214569424229 v[2,3,0] + 4002.292085311382 v[2,3,1]
   + 1402.244726099452 v[2,3,2] + 754.3436606135356 v[2,3,4]
   + 377.0328558050542 v[2,3,5] - L3[2] <= 0
 sumcdv<L3k[2,4]: 142.6410489213906 v[2,4,0] + 2666.79851344072 v[2,4,1]
   + 1558.313086994601 v[2,4,2] + 662.28711873999 v[2,4,3]
   + 73.96189169243812 v[2,4,5] - L3[2] <= 0
 sumcdv<L3k[2,5]: 30.13439055499882 v[2,5,0] + 2081.788093961206 v[2,5,1]
   + 1362.634144203441 v[2,5,2] + 213.4296006548027 v[2,5,3]
   + 39.77220372311457 v[2,5,4] - L3[2] <= 0
 sumcdv<L3k[3,0]: 5157.341951653415 v[3,0,1] + 3671.666910274261 v[3,0,2]
   + 730.4889945162876 v[3,0,3] + 166.8552525398192 v[3,0,4]
   + 102.4224740935731 v[3,0,5] - L3[3] <= 0
 sumcdv<L3k[3,1]: 1079.932926309155 v[3,1,0] + 1078.433845990448 v[3,1,2]
   + 1753.381692596962 v[3,1,3] + 1526.952278225402 v[3,1,4]
   + 2399.614522535525 v[3,1,5] - L3[3] <= 0
 sumcdv<L3k[3,2]: 1211.927357728692 v[3,2,0] + 754.0963698641951 v[3,2,1]
   + 1658.564894982553 v[3,2,3] + 2156.920879500915 v[3,2,4]
   + 2351.259997908641 v[3,2,5] - L3[3] <= 0
 sumcdv<L3k[3,3]: 556.7660121140083 v[3,3,0] + 1556.593843971356 v[3,3,1]
   + 632.6089486452472 v[3,3,2] + 391.3726165125115 v[3,3,4]
   + 393.748569313902 v[3,3,5] - L3[3] <= 0
 sumcdv<L3k[3,4]: 173.7080014080349 v[3,4,0] + 2850.693722225789 v[3,4,1]
   + 2657.781441202069 v[3,4,2] + 399.9701135338887 v[3,4,3]
   + 89.55880066632729 v[3,4,5] - L3[3] <= 0
 sumcdv<L3k[3,5]: 24.45732556356019 v[3,5,0] + 2995.34579201142 v[3,5,1]
   + 1601.272880813523 v[3,5,2] + 422.8431587113633 v[3,5,3]
   + 58.17127033616809 v[3,5,4] - L3[3] <= 0
 sumcdv<L3k[4,0]: 3195.928481008687 v[4,0,1] + 2683.05580433753 v[4,0,2]
   + 792.0061419837513 v[4,0,3] + 169.1472380851935 v[4,0,4]
   + 65.16321671532573 v[4,0,5] - L3[4] <= 0
 sumcdv<L3k[4,1]: 2419.592179230133 v[4,1,0] + 1596.792635005766 v[4,1,2]
   + 1674.854808345808 v[4,1,3] + 3697.482593954713 v[4,1,4]
   + 2380.575502341514 v[4,1,5] - L3[4] <= 0
 sumcdv<L3k[4,2]: 1370.689968924303 v[4,2,0] + 1743.305900353366 v[4,2,1]
   + 848.2727541496598 v[4,2,3] + 2673.620340885763 v[4,2,4]
   + 2437.82203057996 v[4,2,5] - L3[4] <= 0
 sumcdv<L3k[4,3]: 374.201212686459 v[4,3,0] + 2369.135885258108 v[4,3,1]
   + 1221.602726633109 v[4,3,2] + 380.0146920291766 v[4,3,4]
   + 494.8980144446087 v[4,3,5] - L3[4] <= 0
 sumcdv<L3k[4,4]: 157.9245750085395 v[4,4,0] + 1911.473221717867 v[4,4,1]
   + 1469.974029060938 v[4,4,2] + 363.8395939196684 v[4,4,3]
   + 121.9104633262211 v[4,4,5] - L3[4] <= 0
 sumcdv<L3k[4,5]: 22.49979319565862 v[4,5,0] + 2620.186925505309 v[4,5,1]
   + 1236.13479620322 v[4,5,2] + 564.3466346463763 v[4,5,3]
   + 41.30985080007415 v[4,5,4] - L3[4] <= 0
 v<y+u[0,0,0]: - y[0] + v[0,0,0] - u[0,0] <= 0
 v<y+u[0,0,1]: - y[1] + v[0,0,1] - u[0,1] <= 0
 v<y+u[0,0,2]: - y[2] + v[0,0,2] - u[0,2] <= 0
 v<y+u[0,0,3]: - y[3] + v[0,0,3] - u[0,3] <= 0
 v<y+u[0,0,4]: - y[4] + v[0,0,4] - u[0,4] <= 0
 v<y+u[0,0,5]: - y[5] + v[0,0,5] - u[0,5] <= 0
 v<y+u[0,1,0]: - y[0] + v[0,1,0] - u[0,0] <= 0
 v<y+u[0,1,1]: - y[1] + v[0,1,1] - u[0,1] <= 0
 v<y+u[0,1,2]: - y[2] + v[0,1,2] - u[0,2] <= 0
 v<y+u[0,1,3]: - y[3] + v[0,1,3] - u[0,3] <= 0
 v<y+u[0,1,4]: - y[4] + v[0,1,4] - u[0,4] <= 0
 v<y+u[0,1,5]: - y[5] + v[0,1,5] - u[0,5] <= 0
 v<y+u[0,2,0]: - y[0] + v[0,2,0] - u[0,0] <= 0
 v<y+u[0,2,1]: - y[1] + v[0,2,1] - u[0,1] <= 0
 v<y+u[0,2,2]: - y[2] + v[0,2,2] - u[0,2] <= 0
 v<y+u[0,2,3]: - y[3] + v[0,2,3] - u[0,3] <= 0
 v<y+u[0,2,4]: - y[4] + v[0,2,4] - u[0,4] <= 0
 v<y+u[0,2,5]: - y[5] + v[0,2,5] - u[0,5] <= 0
 v<y+u[0,3,0]: - y[0] + v[0,3,0] - u[0,0] <= 0
 v<y+u[0,3,1]: - y[1] + v[0,3,1] - u[0,1] <= 0
 v<y+u[0,3,2]: - y[2] + v[0,3,2] - u[0,2] <= 0
 v<y+u[0,3,3]: - y[3] + v[0,3,3] - u[0,3] <= 0
 v<y+u[0,3,4]: - y[4] + v[0,3,4] - u[0,4] <= 0
 v<y+u[0,3,5]: - y[5] + v[0,3,5] - u[0,5] <= 0
 v<y+u[0,4,0]: - y[0] + v[0,4,0] - u[0,0] <= 0
 v<y+u[0,4,1]: - y[1] + v[0,4,1] - u[0,1] <= 0
 v<y+u[0,4,2]: - y[2] + v[0,4,2] - u[0,2] <= 0
 v<y+u[0,4,3]: - y[3] + v[0,4,3] - u[0,3] <= 0
 v<y+u[0,4,4]: - y[4] + v[0,4,4] - u[0,4] <= 0
 v<y+u[0,4,5]: - y[5] + v[0,4,5] - u[0,5] <= 0
 v<y+u[0,5,0]: - y[0] + v[0,5,0] - u[0,0] <= 0
 v<y+u[0,5,1]: - y[1] + v[0,5,1] - u[0,1] <= 0
 v<y+u[0,5,2]: - y[2] + v[0,5,2] - u[0,2] <= 0
 v<y+u[0,5,3]: - y[3] + v[0,5,3] - u[0,3] <= 0
 v<y+u[0,5,4]: - y[4] + v[0,5,4] - u[0,4] <= 0
 v<y+u[0,5,5]: - y[5] + v[0,5,5] - u[0,5] <= 0
 v<y+u[1,0,0]: - y[0] + v[1,0,0] - u[1,0] <= 0
 v<y+u[1,0,1]: - y[1] + v[1,0,1] - u[1,1] <= 0
 v<y+u[1,0,2]: - y[2] + v[1,0,2] - u[1,2] <= 0
 v<y+u[1,0,3]: - y[3] + v[1,0,3] - u[1,3] <= 0
 v<y+u[1,0,4]: - y[4] + v[1,0,4] - u[1,4] <= 0
 v<y+u[1,0,5]: - y[5] + v[1,0,5] - u[1,5] <= 0
 v<y+u[1,1,0]: - y[0] + v[1,1,0] - u[1,0] <= 0
 v<y+u[1,1,1]: - y[1] + v[1,1,1] - u[1,1] <= 0
 v<y+u[1,1,2]: - y[2] + v[1,1,2] - u[1,2] <= 0
 v<y+u[1,1,3]: - y[3] + v[1,1,3] - u[1,3] <= 0
 v<y+u[1,1,4]: - y[4] + v[1,1,4] - u[1,4] <= 0
 v<y+u[1,1,5]: - y[5] + v[1,1,5] - u[1,5] <= 0
 v<y+u[1,2,0]: - y[0] + v[1,2,0] - u[1,0] <= 0
 v<y+u[1,2,1]: - y[1] + v[1,2,1] - u[1,1] <= 0
 v<y+u[1,2,2]: - y[2] + v[1,2,2] - u[1,2] <= 0
 v<y+u[1,2,3]: - y[3] + v[1,2,3] - u[1,3] <= 0
 v<y+u[1,2,4]: - y[4] + v[1,2,4] - u[1,4] <= 0
 v<y+u[1,2,5]: - y[5] + v[1,2,5] - u[1,5] <= 0
 v<y+u[1,3,0]: - y[0] + v[1,3,0] - u[1,0] <= 0
 v<y+u[1,3,1]: - y[1] + v[1,3,1] - u[1,1] <= 0
 v<y+u[1,3,2]: - y[2] + v[1,3,2] - u[1,2] <= 0
 v<y+u[1,3,3]: - y[3] + v[1,3,3] - u[1,3] <= 0
 v<y+u[1,3,4]: - y[4] + v[1,3,4] - u[1,4] <= 0
 v<y+u[1,3,5]: - y[5] + v[1,3,5] - u[1,5] <= 0
 v<y+u[1,4,0]: - y[0] + v[1,4,0] - u[1,0] <= 0
 v<y+u[1,4,1]: - y[1] + v[1,4,1] - u[1,1] <= 0
 v<y+u[1,4,2]: - y[2] + v[1,4,2] - u[1,2] <= 0
 v<y+u[1,4,3]: - y[3] + v[1,4,3] - u[1,3] <= 0
 v<y+u[1,4,4]: - y[4] + v[1,4,4] - u[1,4] <= 0
 v<y+u[1,4,5]: - y[5] + v[1,4,5] - u[1,5] <= 0
 v<y+u[1,5,0]: - y[0] + v[1,5,0] - u[1,0] <= 0
 v<y+u[1,5,1]: - y[1] + v[1,5,1] - u[1,1] <= 0
 v<y+u[1,5,2]: - y[2] + v[1,5,2] - u[1,2] <= 0
 v<y+u[1,5,3]: - y[3] + v[1,5,3] - u[1,3] <= 0
 v<y+u[1,5,4]: - y[4] + v[1,5,4] - u[1,4] <= 0
 v<y+u[1,5,5]: - y[5] + v[1,5,5] - u[1,5] <= 0
 v<y+u[2,0,0]: - y[0] + v[2,0,0] - u[2,0] <= 0
 v<y+u[2,0,1]: - y[1] + v[2,0,1] - u[2,1] <= 0
 v<y+u[2,0,2]: - y[2] + v[2,0,2] - u[2,2] <= 0
 v<y+u[2,0,3]: - y[3] + v[2,0,3] - u[2,3] <= 0
 v<y+u[2,0,4]: - y[4] + v[2,0,4] - u[2,4] <= 0
 v<y+u[2,0,5]: - y[5] + v[2,0,5] - u[2,5] <= 0
 v<y+u[2,1,0]: - y[0] + v[2,1,0] - u[2,0] <= 0
 v<y+u[2,1,1]: - y[1] + v[2,1,1] - u[2,1] <= 0
 v<y+u[2,1,2]: - y[2] + v[2,1,2] - u[2,2] <= 0
 v<y+u[2,1,3]: - y[3] + v[2,1,3] - u[2,3] <= 0
 v<y+u[2,1,4]: - y[4] + v[2,1,4] - u[2,4] <= 0
 v<y+u[2,1,5]: - y[5] + v[2,1,5] - u[2,5] <= 0
 v<y+u[2,2,0]: - y[0] + v[2,2,0] - u[2,0] <= 0
 v<y+u[2,2,1]: - y[1] + v[2,2,1] - u[2,1] <= 0
 v<y+u[2,2,2]: - y[2] + v[2,2,2] - u[2,2] <= 0
 v<y+u[2,2,3]: - y[3] + v[2,2,3] - u[2,3] <= 0
 v<y+u[2,2,4]: - y[4] + v[2,2,4] - u[2,4] <= 0
 v<y+u[2,2,5]: - y[5] + v[2,2,5] - u[2,5] <= 0
 v<y+u[2,3,0]: - y[0] + v[2,3,0] - u[2,0] <= 0
 v<y+u[2,3,1]: - y[1] + v[2,3,1] - u[2,1] <= 0
 v<y+u[2,3,2]: - y[2] + v[2,3,2] - u[2,2] <= 0
 v<y+u[2,3,3]: - y[3] + v[2,3,3] - u[2,3] <= 0
 v<y+u[2,3,4]: - y[4] + v[2,3,4] - u[2,4] <= 0
 v<y+u[2,3,5]: - y[5] + v[2,3,5] - u[2,5] <= 0
 v<y+u[2,4,0]: - y[0] + v[2,4,0] - u[2,0] <= 0
 v<y+u[2,4,1]: - y[1] + v[2,4,1] - u[2,1] <= 0
 v<y+u[2,4,2]: - y[2] + v[2,4,2] - u[2,2] <= 0
 v<y+u[2,4,3]: - y[3] + v[2,4,3] - u[2,3] <= 0
 v<y+u[2,4,4]: - y[4] + v[2,4,4] - u[2,4] <= 0
 v<y+u[2,4,5]: - y[5] + v[2,4,5] - u[2,5] <= 0
 v<y+u[2,5,0]: - y[0] + v[2,5,0] - u[2,0] <= 0
 v<y+u[2,5,1]: - y[1] + v[2,5,1] - u[2,1] <= 0
 v<y+u[2,5,2]: - y[2] + v[2,5,2] - u[2,2] <= 0
 v<y+u[2,5,3]: - y[3] + v[2,5,3] - u[2,3] <= 0
 v<y+u[2,5,4]: - y[4] + v[2,5,4] - u[2,4] <= 0
 v<y+u[2,5,5]: - y[5] + v[2,5,5] - u[2,5] <= 0
 v<y+u[3,0,0]: - y[0] + v[3,0,0] - u[3,0] <= 0
 v<y+u[3,0,1]: - y[1] + v[3,0,1] - u[3,1] <= 0
 v<y+u[3,0,2]: - y[2] + v[3,0,2] - u[3,2] <= 0
 v<y+u[3,0,3]: - y[3] + v[3,0,3] - u[3,3] <= 0
 v<y+u[3,0,4]: - y[4] + v[3,0,4] - u[3,4] <= 0
 v<y+u[3,0,5]: - y[5] + v[3,0,5] - u[3,5] <= 0
 v<y+u[3,1,0]: - y[0] + v[3,1,0] - u[3,0] <= 0
 v<y+u[3,1,1]: - y[1] + v[3,1,1] - u[3,1] <= 0
 v<y+u[3,1,2]: - y[2] + v[3,1,2] - u[3,2] <= 0
 v<y+u[3,1,3]: - y[3] + v[3,1,3] - u[3,3] <= 0
 v<y+u[3,1,4]: - y[4] + v[3,1,4] - u[3,4] <= 0
 v<y+u[3,1,5]: - y[5] + v[3,1,5] - u[3,5] <= 0
 v<y+u[3,2,0]: - y[0] + v[3,2,0] - u[3,0] <= 0
 v<y+u[3,2,1]: - y[1] + v[3,2,1] - u[3,1] <= 0
 v<y+u[3,2,2]: - y[2] + v[3,2,2] - u[3,2] <= 0
 v<y+u[3,2,3]: - y[3] + v[3,2,3] - u[3,3] <= 0
 v<y+u[3,2,4]: - y[4] + v[3,2,4] - u[3,4] <= 0
 v<y+u[3,2,5]: - y[5] + v[3,2,5] - u[3,5] <= 0
 v<y+u[3,3,0]: - y[0] + v[3,3,0] - u[3,0] <= 0
 v<y+u[3,3,1]: - y[1] + v[3,3,1] - u[3,1] <= 0
 v<y+u[3,3,2]: - y[2] + v[3,3,2] - u[3,2] <= 0
 v<y+u[3,3,3]: - y[3] + v[3,3,3] - u[3,3] <= 0
 v<y+u[3,3,4]: - y[4] + v[3,3,4] - u[3,4] <= 0
 v<y+u[3,3,5]: - y[5] + v[3,3,5] - u[3,5] <= 0
 v<y+u[3,4,0]: - y[0] + v[3,4,0] - u[3,0] <= 0
 v<y+u[3,4,1]: - y[1] + v[3,4,1] - u[3,1] <= 0
 v<y+u[3,4,2]: - y[2] + v[3,4,2] - u[3,2] <= 0
 v<y+u[3,4,3]: - y[3] + v[3,4,3] - u[3,3] <= 0
 v<y+u[3,4,4]: - y[4] + v[3,4,4] - u[3,4] <= 0
 v<y+u[3,4,5]: - y[5] + v[3,4,5] - u[3,5] <= 0
 v<y+u[3,5,0]: - y[0] + v[3,5,0] - u[3,0] <= 0
 v<y+u[3,5,1]: - y[1] + v[3,5,1] - u[3,1] <= 0
 v<y+u[3,5,2]: - y[2] + v[3,5,2] - u[3,2] <= 0
 v<y+u[3,5,3]: - y[3] + v[3,5,3] - u[3,3] <= 0
 v<y+u[3,5,4]: - y[4] + v[3,5,4] - u[3,4] <= 0
 v<y+u[3,5,5]: - y[5] + v[3,5,5] - u[3,5] <= 0
 v<y+u[4,0,0]: - y[0] + v[4,0,0] - u[4,0] <= 0
 v<y+u[4,0,1]: - y[1] + v[4,0,1] - u[4,1] <= 0
 v<y+u[4,0,2]: - y[2] + v[4,0,2] - u[4,2] <= 0
 v<y+u[4,0,3]: - y[3] + v[4,0,3] - u[4,3] <= 0
 v<y+u[4,0,4]: - y[4] + v[4,0,4] - u[4,4] <= 0
 v<y+u[4,0,5]: - y[5] + v[4,0,5] - u[4,5] <= 0
 v<y+u[4,1,0]: - y[0] + v[4,1,0] - u[4,0] <= 0
 v<y+u[4,1,1]: - y[1] + v[4,1,1] - u[4,1] <= 0
 v<y+u[4,1,2]: - y[2] + v[4,1,2] - u[4,2] <= 0
 v<y+u[4,1,3]: - y[3] + v[4,1,3] - u[4,3] <= 0
 v<y+u[4,1,4]: - y[4] + v[4,1,4] - u[4,4] <= 0
 v<y+u[4,1,5]: - y[5] + v[4,1,5] - u[4,5] <= 0
 v<y+u[4,2,0]: - y[0] + v[4,2,0] - u[4,0] <= 0
 v<y+u[4,2,1]: - y[1] + v[4,2,1] - u[4,1] <= 0
 v<y+u[4,2,2]: - y[2] + v[4,2,2] - u[4,2] <= 0
 v<y+u[4,2,3]: - y[3] + v[4,2,3] - u[4,3] <= 0
 v<y+u[4,2,4]: - y[4] + v[4,2,4] - u[4,4] <= 0
 v<y+u[4,2,5]: - y[5] + v[4,2,5] - u[4,5] <= 0
 v<y+u[4,3,0]: - y[0] + v[4,3,0] - u[4,0] <= 0
 v<y+u[4,3,1]: - y[1] + v[4,3,1] - u[4,1] <= 0
 v<y+u[4,3,2]: - y[2] + v[4,3,2] - u[4,2] <= 0
 v<y+u[4,3,3]: - y[3] + v[4,3,3] - u[4,3] <= 0
 v<y+u[4,3,4]: - y[4] + v[4,3,4] - u[4,4] <= 0
 v<y+u[4,3,5]: - y[5] + v[4,3,5] - u[4,5] <= 0
 v<y+u[4,4,0]: - y[0] + v[4,4,0] - u[4,0] <= 0
 v<y+u[4,4,1]: - y[1] + v[4,4,1] - u[4,1] <= 0
 v<y+u[4,4,2]: - y[2] + v[4,4,2] - u[4,2] <= 0
 v<y+u[4,4,3]: - y[3] + v[4,4,3] - u[4,3] <= 0
 v<y+u[4,4,4]: - y[4] + v[4,4,4] - u[4,4] <= 0
 v<y+u[4,4,5]: - y[5] + v[4,4,5] - u[4,5] <= 0
 v<y+u[4,5,0]: - y[0] + v[4,5,0] - u[4,0] <= 0
 v<y+u[4,5,1]: - y[1] + v[4,5,1] - u[4,1] <= 0
 v<y+u[4,5,2]: - y[2] + v[4,5,2] - u[4,2] <= 0
 v<y+u[4,5,3]: - y[3] + v[4,5,3] - u[4,3] <= 0
 v<y+u[4,5,4]: - y[4] + v[4,5,4] - u[4,4] <= 0
 v<y+u[4,5,5]: - y[5] + v[4,5,5] - u[4,5] <= 0
 v<1-ak[0,0,0]: v[0,0,0] <= 0
 v<1-ak[0,0,1]: v[0,0,1] <= 1
 v<1-ak[0,0,2]: v[0,0,2] <= 1
 v<1-ak[0,0,3]: v[0,0,3] <= 1
 v<1-ak[0,0,4]: v[0,0,4] <= 1
 v<1-ak[0,0,5]: v[0,0,5] <= 1
 v<1-ak[0,1,0]: v[0,1,0] <= 0
 v<1-ak[0,1,1]: v[0,1,1] <= 1
 v<1-ak[0,1,2]: v[0,1,2] <= 1
 v<1-ak[0,1,3]: v[0,1,3] <= 1
 v<1-ak[0,1,4]: v[0,1,4] <= 1
 v<1-ak[0,1,5]: v[0,1,5] <= 1
 v<1-ak[0,2,0]: v[0,2,0] <= 0
 v<1-ak[0,2,1]: v[0,2,1] <= 1
 v<1-ak[0,2,2]: v[0,2,2] <= 1
 v<1-ak[0,2,3]: v[0,2,3] <= 1
 v<1-ak[0,2,4]: v[0,2,4] <= 1
 v<1-ak[0,2,5]: v[0,2,5] <= 1
 v<1-ak[0,3,0]: v[0,3,0] <= 0
 v<1-ak[0,3,1]: v[0,3,1] <= 1
 v<1-ak[0,3,2]: v[0,3,2] <= 1
 v<1-ak[0,3,3]: v[0,3,3] <= 1
 v<1-ak[0,3,4]: v[0,3,4] <= 1
 v<1-ak[0,3,5]: v[0,3,5] <= 1
 v<1-ak[0,4,0]: v[0,4,0] <= 0
 v<1-ak[0,4,1]: v[0,4,1] <= 1
 v<1-ak[0,4,2]: v[0,4,2] <= 1
 v<1-ak[0,4,3]: v[0,4,3] <= 1
 v<1-ak[0,4,4]: v[0,4,4] <= 1
 v<1-ak[0,4,5]: v[0,4,5] <= 1
 v<1-ak[0,5,0]: v[0,5,0] <= 0
 v<1-ak[0,5,1]: v[0,5,1] <= 1
 v<1-ak[0,5,2]: v[0,5,2] <= 1
 v<1-ak[0,5,3]: v[0,5,3] <= 1
 v<1-ak[0,5,4]: v[0,5,4] <= 1
 v<1-ak[0,5,5]: v[0,5,5] <= 1
 v<1-ak[1,0,0]: v[1,0,0] <= 1
 v<1-ak[1,0,1]: v[1,0,1] <= 1
 v<1-ak[1,0,2]: v[1,0,2] <= 1
 v<1-ak[1,0,3]: v[1,0,3] <= 1
 v<1-ak[1,0,4]: v[1,0,4] <= 1
 v<1-ak[1,0,5]: v[1,0,5] <= 0
 v<1-ak[1,1,0]: v[1,1,0] <= 1
 v<1-ak[1,1,1]: v[1,1,1] <= 1
 v<1-ak[1,1,2]: v[1,1,2] <= 1
 v<1-ak[1,1,3]: v[1,1,3] <= 1
 v<1-ak[1,1,4]: v[1,1,4] <= 1
 v<1-ak[1,1,5]: v[1,1,5] <= 0
 v<1-ak[1,2,0]: v[1,2,0] <= 1
 v<1-ak[1,2,1]: v[1,2,1] <= 1
 v<1-ak[1,2,2]: v[1,2,2] <= 1
 v<1-ak[1,2,3]: v[1,2,3] <= 1
 v<1-ak[1,2,4]: v[1,2,4] <= 1
 v<1-ak[1,2,5]: v[1,2,5] <= 0
 v<1-ak[1,3,0]: v[1,3,0] <= 1
 v<1-ak[1,3,1]: v[1,3,1] <= 1
 v<1-ak[1,3,2]: v[1,3,2] <= 1
 v<1-ak[1,3,3]: v[1,3,3] <= 1
 v<1-ak[1,3,4]: v[1,3,4] <= 1
 v<1-ak[1,3,5]: v[1,3,5] <= 0
 v<1-ak[1,4,0]: v[1,4,0] <= 1
 v<1-ak[1,4,1]: v[1,4,1] <= 1
 v<1-ak[1,4,2]: v[1,4,2] <= 1
 v<1-ak[1,4,3]: v[1,4,3] <= 1
 v<1-ak[1,4,4]: v[1,4,4] <= 1
 v<1-ak[1,4,5]: v[1,4,5] <= 0
 v<1-ak[1,5,0]: v[1,5,0] <= 1
 v<1-ak[1,5,1]: v[1,5,1] <= 1
 v<1-ak[1,5,2]: v[1,5,2] <= 1
 v<1-ak[1,5,3]: v[1,5,3] <= 1
 v<1-ak[1,5,4]: v[1,5,4] <= 1
 v<1-ak[1,5,5]: v[1,5,5] <= 0
 v<1-ak[2,0,0]: v[2,0,0] <= 1
 v<1-ak[2,0,1]: v[2,0,1] <= 0
 v<1-ak[2,0,2]: v[2,0,2] <= 1
 v<1-ak[2,0,3]: v[2,0,3] <= 1
 v<1-ak[2,0,4]: v[2,0,4] <= 1
 v<1-ak[2,0,5]: v[2,0,5] <= 1
 v<1-ak[2,1,0]: v[2,1,0] <= 1
 v<1-ak[2,1,1]: v[2,1,1] <= 0
 v<1-ak[2,1,2]: v[2,1,2] <= 1
 v<1-ak[2,1,3]: v[2,1,3] <= 1
 v<1-ak[2,1,4]: v[2,1,4] <= 1
 v<1-ak[2,1,5]: v[2,1,5] <= 1
 v<1-ak[2,2,0]: v[2,2,0] <= 1
 v<1-ak[2,2,1]: v[2,2,1] <= 0
 v<1-ak[2,2,2]: v[2,2,2] <= 1
 v<1-ak[2,2,3]: v[2,2,3] <= 1
 v<1-ak[2,2,4]: v[2,2,4] <= 1
 v<1-ak[2,2,5]: v[2,2,5] <= 1
 v<1-ak[2,3,0]: v[2,3,0] <= 1
 v<1-ak[2,3,1]: v[2,3,1] <= 0
 v<1-ak[2,3,2]: v[2,3,2] <= 1
 v<1-ak[2,3,3]: v[2,3,3] <= 1
 v<1-ak[2,3,4]: v[2,3,4] <= 1
 v<1-ak[2,3,5]: v[2,3,5] <= 1
 v<1-ak[2,4,0]: v[2,4,0] <= 1
 v<1-ak[2,4,1]: v[2,4,1] <= 0
 v<1-ak[2,4,2]: v[2,4,2] <= 1
 v<1-ak[2,4,3]: v[2,4,3] <= 1
 v<1-ak[2,4,4]: v[2,4,4] <= 1
 v<1-ak[2,4,5]: v[2,4,5] <= 1
 v<1-ak[2,5,0]: v[2,5,0] <= 1
 v<1-ak[2,5,1]: v[2,5,1] <= 0
 v<1-ak[2,5,2]: v[2,5,2] <= 1
 v<1-ak[2,5,3]: v[2,5,3] <= 1
 v<1-ak[2,5,4]: v[2,5,4] <= 1
 v<1-ak[2,5,5]: v[2,5,5] <= 1
 v<1-ak[3,0,0]: v[3,0,0] <= 0
 v<1-ak[3,0,1]: v[3,0,1] <= 1
 v<1-ak[3,0,2]: v[3,0,2] <= 1
 v<1-ak[3,0,3]: v[3,0,3] <= 1
 v<1-ak[3,0,4]: v[3,0,4] <= 1
 v<1-ak[3,0,5]: v[3,0,5] <= 1
 v<1-ak[3,1,0]: v[3,1,0] <= 0
 v<1-ak[3,1,1]: v[3,1,1] <= 1
 v<1-ak[3,1,2]: v[3,1,2] <= 1
 v<1-ak[3,1,3]: v[3,1,3] <= 1
 v<1-ak[3,1,4]: v[3,1,4] <= 1
 v<1-ak[3,1,5]: v[3,1,5] <= 1
 v<1-ak[3,2,0]: v[3,2,0] <= 0
 v<1-ak[3,2,1]: v[3,2,1] <= 1
 v<1-ak[3,2,2]: v[3,2,2] <= 1
 v<1-ak[3,2,3]: v[3,2,3] <= 1
 v<1-ak[3,2,4]: v[3,2,4] <= 1
 v<1-ak[3,2,5]: v[3,2,5] <= 1
 v<1-ak[3,3,0]: v[3,3,0] <= 0
 v<1-ak[3,3,1]: v[3,3,1] <= 1
 v<1-ak[3,3,2]: v[3,3,2] <= 1
 v<1-ak[3,3,3]: v[3,3,3] <= 1
 v<1-ak[3,3,4]: v[3,3,4] <= 1
 v<1-ak[3,3,5]: v[3,3,5] <= 1
 v<1-ak[3,4,0]: v[3,4,0] <= 0
 v<1-ak[3,4,1]: v[3,4,1] <= 1
 v<1-ak[3,4,2]: v[3,4,2] <= 1
 v<1-ak[3,4,3]: v[3,4,3] <= 1
 v<1-ak[3,4,4]: v[3,4,4] <= 1
 v<1-ak[3,4,5]: v[3,4,5] <= 1
 v<1-ak[3,5,0]: v[3,5,0] <= 0
 v<1-ak[3,5,1]: v[3,5,1] <= 1
 v<1-ak[3,5,2]: v[3,5,2] <= 1
 v<1-ak[3,5,3]: v[3,5,3] <= 1
 v<1-ak[3,5,4]: v[3,5,4] <= 1
 v<1-ak[3,5,5]: v[3,5,5] <= 1
 v<1-ak[4,0,0]: v[4,0,0] <= 1
 v<1-ak[4,0,1]: v[4,0,1] <= 1
 v<1-ak[4,0,2]: v[4,0,2] <= 1
 v<1-ak[4,0,3]: v[4,0,3] <= 1
 v<1-ak[4,0,4]: v[4,0,4] <= 1
 v<1-ak[4,0,5]: v[4,0,5] <= 0
 v<1-ak[4,1,0]: v[4,1,0] <= 1
 v<1-ak[4,1,1]: v[4,1,1] <= 1
 v<1-ak[4,1,2]: v[4,1,2] <= 1
 v<1-ak[4,1,3]: v[4,1,3] <= 1
 v<1-ak[4,1,4]: v[4,1,4] <= 1
 v<1-ak[4,1,5]: v[4,1,5] <= 0
 v<1-ak[4,2,0]: v[4,2,0] <= 1
 v<1-ak[4,2,1]: v[4,2,1] <= 1
 v<1-ak[4,2,2]: v[4,2,2] <= 1
 v<1-ak[4,2,3]: v[4,2,3] <= 1
 v<1-ak[4,2,4]: v[4,2,4] <= 1
 v<1-ak[4,2,5]: v[4,2,5] <= 0
 v<1-ak[4,3,0]: v[4,3,0] <= 1
 v<1-ak[4,3,1]: v[4,3,1] <= 1
 v<1-ak[4,3,2]: v[4,3,2] <= 1
 v<1-ak[4,3,3]: v[4,3,3] <= 1
 v<1-ak[4,3,4]: v[4,3,4] <= 1
 v<1-ak[4,3,5]: v[4,3,5] <= 0
 v<1-ak[4,4,0]: v[4,4,0] <= 1
 v<1-ak[4,4,1]: v[4,4,1] <= 1
 v<1-ak[4,4,2]: v[4,4,2] <= 1
 v<1-ak[4,4,3]: v[4,4,3] <= 1
 v<1-ak[4,4,4]: v[4,4,4] <= 1
 v<1-ak[4,4,5]: v[4,4,5] <= 0
 v<1-ak[4,5,0]: v[4,5,0] <= 1
 v<1-ak[4,5,1]: v[4,5,1] <= 1
 v<1-ak[4,5,2]: v[4,5,2] <= 1
 v<1-ak[4,5,3]: v[4,5,3] <= 1
 v<1-ak[4,5,4]: v[4,5,4] <= 1
 v<1-ak[4,5,5]: v[4,5,5] <= 0
 sumv[0,0]: v[0,0,0] + v[0,0,1] + v[0,0,2] + v[0,0,3] + v[0,0,4] + v[0,0,5]
   = 1
 sumv[0,1]: v[0,1,0] + v[0,1,1] + v[0,1,2] + v[0,1,3] + v[0,1,4] + v[0,1,5]
   = 1
 sumv[0,2]: v[0,2,0] + v[0,2,1] + v[0,2,2] + v[0,2,3] + v[0,2,4] + v[0,2,5]
   = 1
 sumv[0,3]: v[0,3,0] + v[0,3,1] + v[0,3,2] + v[0,3,3] + v[0,3,4] + v[0,3,5]
   = 1
 sumv[0,4]: v[0,4,0] + v[0,4,1] + v[0,4,2] + v[0,4,3] + v[0,4,4] + v[0,4,5]
   = 1
 sumv[0,5]: v[0,5,0] + v[0,5,1] + v[0,5,2] + v[0,5,3] + v[0,5,4] + v[0,5,5]
   = 1
 sumv[1,0]: v[1,0,0] + v[1,0,1] + v[1,0,2] + v[1,0,3] + v[1,0,4] + v[1,0,5]
   = 1
 sumv[1,1]: v[1,1,0] + v[1,1,1] + v[1,1,2] + v[1,1,3] + v[1,1,4] + v[1,1,5]
   = 1
 sumv[1,2]: v[1,2,0] + v[1,2,1] + v[1,2,2] + v[1,2,3] + v[1,2,4] + v[1,2,5]
   = 1
 sumv[1,3]: v[1,3,0] + v[1,3,1] + v[1,3,2] + v[1,3,3] + v[1,3,4] + v[1,3,5]
   = 1
 sumv[1,4]: v[1,4,0] + v[1,4,1] + v[1,4,2] + v[1,4,3] + v[1,4,4] + v[1,4,5]
   = 1
 sumv[1,5]: v[1,5,0] + v[1,5,1] + v[1,5,2] + v[1,5,3] + v[1,5,4] + v[1,5,5]
   = 1
 sumv[2,0]: v[2,0,0] + v[2,0,1] + v[2,0,2] + v[2,0,3] + v[2,0,4] + v[2,0,5]
   = 1
 sumv[2,1]: v[2,1,0] + v[2,1,1] + v[2,1,2] + v[2,1,3] + v[2,1,4] + v[2,1,5]
   = 1
 sumv[2,2]: v[2,2,0] + v[2,2,1] + v[2,2,2] + v[2,2,3] + v[2,2,4] + v[2,2,5]
   = 1
 sumv[2,3]: v[2,3,0] + v[2,3,1] + v[2,3,2] + v[2,3,3] + v[2,3,4] + v[2,3,5]
   = 1
 sumv[2,4]: v[2,4,0] + v[2,4,1] + v[2,4,2] + v[2,4,3] + v[2,4,4] + v[2,4,5]
   = 1
 sumv[2,5]: v[2,5,0] + v[2,5,1] + v[2,5,2] + v[2,5,3] + v[2,5,4] + v[2,5,5]
   = 1
 sumv[3,0]: v[3,0,0] + v[3,0,1] + v[3,0,2] + v[3,0,3] + v[3,0,4] + v[3,0,5]
   = 1
 sumv[3,1]: v[3,1,0] + v[3,1,1] + v[3,1,2] + v[3,1,3] + v[3,1,4] + v[3,1,5]
   = 1
 sumv[3,2]: v[3,2,0] + v[3,2,1] + v[3,2,2] + v[3,2,3] + v[3,2,4] + v[3,2,5]
   = 1
 sumv[3,3]: v[3,3,0] + v[3,3,1] + v[3,3,2] + v[3,3,3] + v[3,3,4] + v[3,3,5]
   = 1
 sumv[3,4]: v[3,4,0] + v[3,4,1] + v[3,4,2] + v[3,4,3] + v[3,4,4] + v[3,4,5]
   = 1
 sumv[3,5]: v[3,5,0] + v[3,5,1] + v[3,5,2] + v[3,5,3] + v[3,5,4] + v[3,5,5]
   = 1
 sumv[4,0]: v[4,0,0] + v[4,0,1] + v[4,0,2] + v[4,0,3] + v[4,0,4] + v[4,0,5]
   = 1
 sumv[4,1]: v[4,1,0] + v[4,1,1] + v[4,1,2] + v[4,1,3] + v[4,1,4] + v[4,1,5]
   = 1
 sumv[4,2]: v[4,2,0] + v[4,2,1] + v[4,2,2] + v[4,2,3] + v[4,2,4] + v[4,2,5]
   = 1
 sumv[4,3]: v[4,3,0] + v[4,3,1] + v[4,3,2] + v[4,3,3] + v[4,3,4] + v[4,3,5]
   = 1
 sumv[4,4]: v[4,4,0] + v[4,4,1] + v[4,4,2] + v[4,4,3] + v[4,4,4] + v[4,4,5]
   = 1
 sumv[4,5]: v[4,5,0] + v[4,5,1] + v[4,5,2] + v[4,5,3] + v[4,5,4] + v[4,5,5]
   = 1
 u+y<1[0,0]: y[0] + u[0,0] <= 1
 u+y<1[0,1]: y[1] + u[0,1] <= 1
 u+y<1[0,2]: y[2] + u[0,2] <= 1
 u+y<1[0,3]: y[3] + u[0,3] <= 1
 u+y<1[0,4]: y[4] + u[0,4] <= 1
 u+y<1[0,5]: y[5] + u[0,5] <= 1
 u+y<1[1,0]: y[0] + u[1,0] <= 1
 u+y<1[1,1]: y[1] + u[1,1] <= 1
 u+y<1[1,2]: y[2] + u[1,2] <= 1
 u+y<1[1,3]: y[3] + u[1,3] <= 1
 u+y<1[1,4]: y[4] + u[1,4] <= 1
 u+y<1[1,5]: y[5] + u[1,5] <= 1
 u+y<1[2,0]: y[0] + u[2,0] <= 1
 u+y<1[2,1]: y[1] + u[2,1] <= 1
 u+y<1[2,2]: y[2] + u[2,2] <= 1
 u+y<1[2,3]: y[3] + u[2,3] <= 1
 u+y<1[2,4]: y[4] + u[2,4] <= 1
 u+y<1[2,5]: y[5] + u[2,5] <= 1
 u+y<1[3,0]: y[0] + u[3,0] <= 1
 u+y<1[3,1]: y[1] + u[3,1] <= 1
 u+y<1[3,2]: y[2] + u[3,2] <= 1
 u+y<1[3,3]: y[3] + u[3,3] <= 1
 u+y<1[3,4]: y[4] + u[3,4] <= 1
 u+y<1[3,5]: y[5] + u[3,5] <= 1
 u+y<1[4,0]: y[0] + u[4,0] <= 1
 u+y<1[4,1]: y[1] + u[4,1] <= 1
 u+y<1[4,2]: y[2] + u[4,2] <= 1
 u+y<1[4,3]: y[3] + u[4,3] <= 1
 u+y<1[4,4]: y[4] + u[4,4] <= 1
 u+y<1[4,5]: y[5] + u[4,5] <= 1
 u+ak<1[0,0]: u[0,0] <= 0
 u+ak<1[0,1]: u[0,1] <= 1
 u+ak<1[0,2]: u[0,2] <= 1
 u+ak<1[0,3]: u[0,3] <= 1
 u+ak<1[0,4]: u[0,4] <= 1
 u+ak<1[0,5]: u[0,5] <= 1
 u+ak<1[1,0]: u[1,0] <= 1
 u+ak<1[1,1]: u[1,1] <= 1
 u+ak<1[1,2]: u[1,2] <= 1
 u+ak<1[1,3]: u[1,3] <= 1
 u+ak<1[1,4]: u[1,4] <= 1
 u+ak<1[1,5]: u[1,5] <= 0
 u+ak<1[2,0]: u[2,0] <= 1
 u+ak<1[2,1]: u[2,1] <= 0
 u+ak<1[2,2]: u[2,2] <= 1
 u+ak<1[2,3]: u[2,3] <= 1
 u+ak<1[2,4]: u[2,4] <= 1
 u+ak<1[2,5]: u[2,5] <= 1
 u+ak<1[3,0]: u[3,0] <= 0
 u+ak<1[3,1]: u[3,1] <= 1
 u+ak<1[3,2]: u[3,2] <= 1
 u+ak<1[3,3]: u[3,3] <= 1
 u+ak<1[3,4]: u[3,4] <= 1
 u+ak<1[3,5]: u[3,5] <= 1
 u+ak<1[4,0]: u[4,0] <= 1
 u+ak<1[4,1]: u[4,1] <= 1
 u+ak<1[4,2]: u[4,2] <= 1
 u+ak<1[4,3]: u[4,3] <= 1
 u+ak<1[4,4]: u[4,4] <= 1
 u+ak<1[4,5]: u[4,5] <= 0
 2S-p[0]: y[1] + y[2] + y[3] + y[4] + y[5] + u[0,0] + u[0,1] + u[0,2]
   + u[0,3] + u[0,4] + u[0,5] = 2
 2S-p[1]: y[0] + y[1] + y[2] + y[3] + y[4] + u[1,0] + u[1,1] + u[1,2]
   + u[1,3] + u[1,4] + u[1,5] = 2
 2S-p[2]: y[0] + y[2] + y[3] + y[4] + y[5] + u[2,0] + u[2,1] + u[2,2]
   + u[2,3] + u[2,4] + u[2,5] = 2
 2S-p[3]: y[1] + y[2] + y[3] + y[4] + y[5] + u[3,0] + u[3,1] + u[3,2]
   + u[3,3] + u[3,4] + u[3,5] = 2
 2S-p[4]: y[0] + y[1] + y[2] + y[3] + y[4] + u[4,0] + u[4,1] + u[4,2]
   + u[4,3] + u[4,4] + u[4,5] = 2
Bounds
Binaries
 x[0,0] x[0,1] x[0,2] x[0,3] x[0,4] x[0,5] x[1,0] x[1,1] x[1,2] x[1,3]
 x[1,4] x[1,5] x[2,0] x[2,1] x[2,2] x[2,3] x[2,4] x[2,5] x[3,0] x[3,1]
 x[3,2] x[3,3] x[3,4] x[3,5] x[4,0] x[4,1] x[4,2] x[4,3] x[4,4] x[4,5]
 x[5,0] x[5,1] x[5,2] x[5,3] x[5,4] x[5,5] y[0] y[1] y[2] y[3] y[4] y[5]
 v[0,0,0] v[0,0,1] v[0,0,2] v[0,0,3] v[0,0,4] v[0,0,5] v[0,1,0] v[0,1,1]
 v[0,1,2] v[0,1,3] v[0,1,4] v[0,1,5] v[0,2,0] v[0,2,1] v[0,2,2] v[0,2,3]
 v[0,2,4] v[0,2,5] v[0,3,0] v[0,3,1] v[0,3,2] v[0,3,3] v[0,3,4] v[0,3,5]
 v[0,4,0] v[0,4,1] v[0,4,2] v[0,4,3] v[0,4,4] v[0,4,5] v[0,5,0] v[0,5,1]
 v[0,5,2] v[0,5,3] v[0,5,4] v[0,5,5] v[1,0,0] v[1,0,1] v[1,0,2] v[1,0,3]
 v[1,0,4] v[1,0,5] v[1,1,0] v[1,1,1] v[1,1,2] v[1,1,3] v[1,1,4] v[1,1,5]
 v[1,2,0] v[1,2,1] v[1,2,2] v[1,2,3] v[1,2,4] v[1,2,5] v[1,3,0] v[1,3,1]
 v[1,3,2] v[1,3,3] v[1,3,4] v[1,3,5] v[1,4,0] v[1,4,1] v[1,4,2] v[1,4,3]
 v[1,4,4] v[1,4,5] v[1,5,0] v[1,5,1] v[1,5,2] v[1,5,3] v[1,5,4] v[1,5,5]
 v[2,0,0] v[2,0,1] v[2,0,2] v[2,0,3] v[2,0,4] v[2,0,5] v[2,1,0] v[2,1,1]
 v[2,1,2] v[2,1,3] v[2,1,4] v[2,1,5] v[2,2,0] v[2,2,1] v[2,2,2] v[2,2,3]
 v[2,2,4] v[2,2,5] v[2,3,0] v[2,3,1] v[2,3,2] v[2,3,3] v[2,3,4] v[2,3,5]
 v[2,4,0] v[2,4,1] v[2,4,2] v[2,4,3] v[2,4,4] v[2,4,5] v[2,5,0] v[2,5,1]
 v[2,5,2] v[2,5,3] v[2,5,4] v[2,5,5] v[3,0,0] v[3,0,1] v[3,0,2] v[3,0,3]
 v[3,0,4] v[3,0,5] v[3,1,0] v[3,1,1] v[3,1,2] v[3,1,3] v[3,1,4] v[3,1,5]
 v[3,2,0] v[3,2,1] v[3,2,2] v[3,2,3] v[3,2,4] v[3,2,5] v[3,3,0] v[3,3,1]
 v[3,3,2] v[3,3,3] v[3,3,4] v[3,3,5] v[3,4,0] v[3,4,1] v[3,4,2] v[3,4,3]
 v[3,4,4] v[3,4,5] v[3,5,0] v[3,5,1] v[3,5,2] v[3,5,3] v[3,5,4] v[3,5,5]
 v[4,0,0] v[4,0,1] v[4,0,2] v[4,0,3] v[4,0,4] v[4,0,5] v[4,1,0] v[4,1,1]
 v[4,1,2] v[4,1,3] v[4,1,4] v[4,1,5] v[4,2,0] v[4,2,1] v[4,2,2] v[4,2,3]
 v[4,2,4] v[4,2,5] v[4,3,0] v[4,3,1] v[4,3,2] v[4,3,3] v[4,3,4] v[4,3,5]
 v[4,4,0] v[4,4,1] v[4,4,2] v[4,4,3] v[4,4,4] v[4,4,5] v[4,5,0] v[4,5,1]
 v[4,5,2] v[4,5,3] v[4,5,4] v[4,5,5] u[0,0] u[0,1] u[0,2] u[0,3] u[0,4]
 u[0,5] u[1,0] u[1,1] u[1,2] u[1,3] u[1,4] u[1,5] u[2,0] u[2,1] u[2,2]
 u[2,3] u[2,4] u[2,5] u[3,0] u[3,1] u[3,2] u[3,3] u[3,4] u[3,5] u[4,0]
 u[4,1] u[4,2] u[4,3] u[4,4] u[4,5]
End
